p cnf 213 917
65 69 88 103 106 0
86 90 111 115 146 0
82 101 125 126 183 0
59 122 134 136 0
97 105 116 140 143 0
84 102 108 0
79 130 200 0
72 202 0
160 163 0
67 87 94 0
57 63 141 0
53 55 98 0
75 77 120 0
52 110 113 0
51 131 0
50 74 109 0
66 100 0
64 93 104 147 0
114 148 0
80 149 153 155 0
73 132 156 158 0
71 124 161 203 205 0
162 164 166 0
168 171 172 174 0
176 178 180 181 0
138 182 187 0
85 188 0
151 189 191 0
133 193 0
194 195 0
70 196 198 199 0
127 135 184 0
61 142 0
192 201 0
159 204 0
206 207 0
209 210 0
91 95 0
123 129 139 186 0
54 118 145 212 213 0
78 119 0
48 49 112 0
46 47 190 0
-69 -197 0
-183 -197 0
-134 -197 0
-105 -197 0
-130 -197 0
-69 -183 0
-69 -134 0
-69 -105 0
-69 -130 0
-134 -183 0
-105 -183 0
-130 -183 0
-105 -134 0
-130 -134 0
-105 -130 0
-55 -63 0
-63 -113 0
-45 -63 0
-51 -63 0
-44 -63 0
-55 -113 0
-45 -55 0
-51 -55 0
-44 -55 0
-45 -113 0
-51 -113 0
-44 -113 0
-45 -51 0
-44 -45 0
-44 -51 0
-43 -50 0
-50 -104 0
-50 -114 0
-50 -81 0
-50 -96 0
-43 -104 0
-43 -114 0
-43 -81 0
-43 -96 0
-104 -114 0
-81 -104 0
-96 -104 0
-81 -114 0
-96 -114 0
-81 -96 0
-80 -156 0
-80 -162 0
-80 -168 0
-80 -176 0
-42 -80 0
-156 -162 0
-156 -168 0
-156 -176 0
-42 -156 0
-162 -168 0
-162 -176 0
-42 -162 0
-168 -176 0
-42 -168 0
-42 -176 0
-40 -182 0
-40 -211 0
-40 -85 0
-40 -189 0
-38 -40 0
-182 -211 0
-85 -182 0
-182 -189 0
-38 -182 0
-85 -211 0
-189 -211 0
-38 -211 0
-85 -189 0
-38 -85 0
-38 -189 0
-36 -37 0
-37 -196 0
-37 -99 0
-37 -92 0
-37 -61 0
-36 -196 0
-36 -99 0
-36 -92 0
-36 -61 0
-99 -196 0
-92 -196 0
-61 -196 0
-92 -99 0
-61 -99 0
-61 -92 0
-63 -197 0
-50 -197 0
-80 -197 0
-40 -197 0
-37 -197 0
-50 -63 0
-63 -80 0
-40 -63 0
-37 -63 0
-50 -80 0
-40 -50 0
-37 -50 0
-40 -80 0
-37 -80 0
-37 -40 0
-55 -69 0
-43 -69 0
-69 -156 0
-69 -182 0
-36 -69 0
-43 -55 0
-55 -156 0
-55 -182 0
-36 -55 0
-43 -156 0
-43 -182 0
-36 -43 0
-156 -182 0
-36 -156 0
-36 -182 0
-113 -183 0
-104 -183 0
-162 -183 0
-183 -211 0
-183 -196 0
-104 -113 0
-113 -162 0
-113 -211 0
-113 -196 0
-104 -162 0
-104 -211 0
-104 -196 0
-162 -211 0
-162 -196 0
-196 -211 0
-45 -134 0
-114 -134 0
-134 -168 0
-85 -134 0
-99 -134 0
-45 -114 0
-45 -168 0
-45 -85 0
-45 -99 0
-114 -168 0
-85 -114 0
-99 -114 0
-85 -168 0
-99 -168 0
-85 -99 0
-51 -105 0
-81 -105 0
-105 -176 0
-105 -189 0
-92 -105 0
-51 -81 0
-51 -176 0
-51 -189 0
-51 -92 0
-81 -176 0
-81 -189 0
-81 -92 0
-176 -189 0
-92 -176 0
-92 -189 0
-44 -130 0
-96 -130 0
-42 -130 0
-38 -130 0
-61 -130 0
-44 -96 0
-42 -44 0
-38 -44 0
-44 -61 0
-42 -96 0
-38 -96 0
-61 -96 0
-38 -42 0
-42 -61 0
-38 -61 0
-35 -160 0
-160 -179 0
-67 -160 0
-35 -179 0
-35 -67 0
-67 -179 0
-34 -64 0
-34 -148 0
-34 -58 0
-64 -148 0
-58 -64 0
-58 -148 0
-33 -198 0
-33 -68 0
-33 -184 0
-68 -198 0
-184 -198 0
-68 -184 0
-32 -62 0
-32 -54 0
-32 -112 0
-54 -62 0
-62 -112 0
-54 -112 0
-34 -160 0
-33 -160 0
-32 -160 0
-33 -34 0
-32 -34 0
-32 -33 0
-35 -64 0
-35 -198 0
-35 -62 0
-64 -198 0
-62 -64 0
-62 -198 0
-148 -179 0
-68 -179 0
-54 -179 0
-68 -148 0
-54 -148 0
-54 -68 0
-58 -67 0
-67 -184 0
-67 -112 0
-58 -184 0
-58 -112 0
-112 -184 0
-101 -146 0
-122 -146 0
-108 -146 0
-146 -200 0
-101 -122 0
-101 -108 0
-101 -200 0
-108 -122 0
-122 -200 0
-108 -200 0
-77 -110 0
-77 -150 0
-31 -77 0
-29 -77 0
-110 -150 0
-31 -110 0
-29 -110 0
-31 -150 0
-29 -150 0
-29 -31 0
-164 -203 0
-171 -203 0
-203 -208 0
-28 -203 0
-164 -171 0
-164 -208 0
-28 -164 0
-171 -208 0
-28 -171 0
-28 -208 0
-194 -199 0
-26 -194 0
-127 -194 0
-142 -194 0
-26 -199 0
-127 -199 0
-142 -199 0
-26 -127 0
-26 -142 0
-127 -142 0
-137 -186 0
-118 -186 0
-49 -186 0
-186 -190 0
-118 -137 0
-49 -137 0
-137 -190 0
-49 -118 0
-118 -190 0
-49 -190 0
-77 -146 0
-146 -203 0
-146 -194 0
-146 -186 0
-77 -203 0
-77 -194 0
-77 -186 0
-194 -203 0
-186 -203 0
-186 -194 0
-101 -110 0
-101 -164 0
-101 -199 0
-101 -137 0
-110 -164 0
-110 -199 0
-110 -137 0
-164 -199 0
-137 -164 0
-137 -199 0
-122 -150 0
-122 -171 0
-26 -122 0
-118 -122 0
-150 -171 0
-26 -150 0
-118 -150 0
-26 -171 0
-118 -171 0
-26 -118 0
-31 -108 0
-108 -208 0
-108 -127 0
-49 -108 0
-31 -208 0
-31 -127 0
-31 -49 0
-127 -208 0
-49 -208 0
-49 -127 0
-29 -200 0
-28 -200 0
-142 -200 0
-190 -200 0
-28 -29 0
-29 -142 0
-29 -190 0
-28 -142 0
-28 -190 0
-142 -190 0
-88 -90 0
-88 -136 0
-88 -140 0
-90 -136 0
-90 -140 0
-136 -140 0
-124 -158 0
-158 -172 0
-158 -178 0
-124 -172 0
-124 -178 0
-172 -178 0
-152 -201 0
-201 -206 0
-165 -201 0
-152 -206 0
-152 -165 0
-165 -206 0
-25 -129 0
-25 -145 0
-25 -78 0
-129 -145 0
-78 -129 0
-78 -145 0
-88 -158 0
-88 -201 0
-25 -88 0
-158 -201 0
-25 -158 0
-25 -201 0
-90 -124 0
-90 -152 0
-90 -129 0
-124 -152 0
-124 -129 0
-129 -152 0
-136 -172 0
-136 -206 0
-136 -145 0
-172 -206 0
-145 -172 0
-145 -206 0
-140 -178 0
-140 -165 0
-78 -140 0
-165 -178 0
-78 -178 0
-78 -165 0
-24 -115 0
-24 -82 0
-24 -97 0
-24 -102 0
-82 -115 0
-97 -115 0
-102 -115 0
-82 -97 0
-82 -102 0
-97 -102 0
-72 -167 0
-72 -175 0
-41 -72 0
-72 -87 0
-167 -175 0
-41 -167 0
-87 -167 0
-41 -175 0
-87 -175 0
-41 -87 0
-74 -100 0
-74 -93 0
-60 -74 0
-23 -74 0
-93 -100 0
-60 -100 0
-23 -100 0
-60 -93 0
-23 -93 0
-23 -60 0
-22 -195 0
-22 -70 0
-22 -89 0
-22 -135 0
-70 -195 0
-89 -195 0
-135 -195 0
-70 -89 0
-70 -135 0
-89 -135 0
-20 -154 0
-20 -159 0
-19 -20 0
-20 -173 0
-154 -159 0
-19 -154 0
-154 -173 0
-19 -159 0
-159 -173 0
-19 -173 0
-24 -72 0
-24 -74 0
-22 -24 0
-20 -24 0
-72 -74 0
-22 -72 0
-20 -72 0
-22 -74 0
-20 -74 0
-20 -22 0
-115 -167 0
-100 -115 0
-115 -195 0
-115 -154 0
-100 -167 0
-167 -195 0
-154 -167 0
-100 -195 0
-100 -154 0
-154 -195 0
-82 -175 0
-82 -93 0
-70 -82 0
-82 -159 0
-93 -175 0
-70 -175 0
-159 -175 0
-70 -93 0
-93 -159 0
-70 -159 0
-41 -97 0
-60 -97 0
-89 -97 0
-19 -97 0
-41 -60 0
-41 -89 0
-19 -41 0
-60 -89 0
-19 -60 0
-19 -89 0
-87 -102 0
-23 -102 0
-102 -135 0
-102 -173 0
-23 -87 0
-87 -135 0
-87 -173 0
-23 -135 0
-23 -173 0
-135 -173 0
-65 -125 0
-59 -65 0
-59 -125 0
-52 -98 0
-18 -98 0
-18 -52 0
-17 -39 0
-39 -212 0
-17 -212 0
-65 -98 0
-39 -65 0
-39 -98 0
-52 -125 0
-17 -125 0
-17 -52 0
-18 -59 0
-59 -212 0
-18 -212 0
-16 -106 0
-16 -86 0
-16 -116 0
-16 -84 0
-86 -106 0
-106 -116 0
-84 -106 0
-86 -116 0
-84 -86 0
-84 -116 0
-163 -202 0
-170 -202 0
-27 -202 0
-94 -202 0
-163 -170 0
-27 -163 0
-94 -163 0
-27 -170 0
-94 -170 0
-27 -94 0
-53 -57 0
-57 -120 0
-57 -131 0
-15 -57 0
-53 -120 0
-53 -131 0
-15 -53 0
-120 -131 0
-15 -120 0
-15 -131 0
-73 -149 0
-149 -161 0
-149 -180 0
-14 -149 0
-73 -161 0
-73 -180 0
-14 -73 0
-161 -180 0
-14 -161 0
-14 -180 0
-138 -185 0
-117 -185 0
-185 -191 0
-185 -193 0
-117 -138 0
-138 -191 0
-138 -193 0
-117 -191 0
-117 -193 0
-191 -193 0
-16 -202 0
-16 -57 0
-16 -149 0
-16 -185 0
-57 -202 0
-149 -202 0
-185 -202 0
-57 -149 0
-57 -185 0
-149 -185 0
-106 -163 0
-53 -106 0
-73 -106 0
-106 -138 0
-53 -163 0
-73 -163 0
-138 -163 0
-53 -73 0
-53 -138 0
-73 -138 0
-86 -170 0
-86 -120 0
-86 -161 0
-86 -117 0
-120 -170 0
-161 -170 0
-117 -170 0
-120 -161 0
-117 -120 0
-117 -161 0
-27 -116 0
-116 -131 0
-116 -180 0
-116 -191 0
-27 -131 0
-27 -180 0
-27 -191 0
-131 -180 0
-131 -191 0
-180 -191 0
-84 -94 0
-15 -84 0
-14 -84 0
-84 -193 0
-15 -94 0
-14 -94 0
-94 -193 0
-14 -15 0
-15 -193 0
-14 -193 0
-13 -103 0
-13 -111 0
-13 -126 0
-13 -143 0
-13 -79 0
-103 -111 0
-103 -126 0
-103 -143 0
-79 -103 0
-111 -126 0
-111 -143 0
-79 -111 0
-126 -143 0
-79 -126 0
-79 -143 0
-12 -109 0
-66 -109 0
-109 -147 0
-109 -121 0
-107 -109 0
-12 -66 0
-12 -147 0
-12 -121 0
-12 -107 0
-66 -147 0
-66 -121 0
-66 -107 0
-121 -147 0
-107 -147 0
-107 -121 0
-132 -153 0
-153 -205 0
-153 -166 0
-153 -181 0
-11 -153 0
-132 -205 0
-132 -166 0
-132 -181 0
-11 -132 0
-166 -205 0
-181 -205 0
-11 -205 0
-166 -181 0
-11 -166 0
-11 -181 0
-128 -187 0
-128 -144 0
-76 -128 0
-128 -151 0
-30 -128 0
-144 -187 0
-76 -187 0
-151 -187 0
-30 -187 0
-76 -144 0
-144 -151 0
-30 -144 0
-76 -151 0
-30 -76 0
-30 -151 0
-83 -192 0
-10 -83 0
-83 -204 0
-83 -169 0
-83 -209 0
-10 -192 0
-192 -204 0
-169 -192 0
-192 -209 0
-10 -204 0
-10 -169 0
-10 -209 0
-169 -204 0
-204 -209 0
-169 -209 0
-9 -95 0
-95 -123 0
-56 -95 0
-95 -119 0
-47 -95 0
-9 -123 0
-9 -56 0
-9 -119 0
-9 -47 0
-56 -123 0
-119 -123 0
-47 -123 0
-56 -119 0
-47 -56 0
-47 -119 0
-13 -109 0
-13 -153 0
-13 -128 0
-13 -83 0
-13 -95 0
-109 -153 0
-109 -128 0
-83 -109 0
-95 -109 0
-128 -153 0
-83 -153 0
-95 -153 0
-83 -128 0
-95 -128 0
-83 -95 0
-12 -103 0
-103 -132 0
-103 -187 0
-103 -192 0
-9 -103 0
-12 -132 0
-12 -187 0
-12 -192 0
-9 -12 0
-132 -187 0
-132 -192 0
-9 -132 0
-187 -192 0
-9 -187 0
-9 -192 0
-66 -111 0
-111 -205 0
-111 -144 0
-10 -111 0
-111 -123 0
-66 -205 0
-66 -144 0
-10 -66 0
-66 -123 0
-144 -205 0
-10 -205 0
-123 -205 0
-10 -144 0
-123 -144 0
-10 -123 0
-126 -147 0
-126 -166 0
-76 -126 0
-126 -204 0
-56 -126 0
-147 -166 0
-76 -147 0
-147 -204 0
-56 -147 0
-76 -166 0
-166 -204 0
-56 -166 0
-76 -204 0
-56 -76 0
-56 -204 0
-121 -143 0
-143 -181 0
-143 -151 0
-143 -169 0
-119 -143 0
-121 -181 0
-121 -151 0
-121 -169 0
-119 -121 0
-151 -181 0
-169 -181 0
-119 -181 0
-151 -169 0
-119 -151 0
-119 -169 0
-79 -107 0
-11 -79 0
-30 -79 0
-79 -209 0
-47 -79 0
-11 -107 0
-30 -107 0
-107 -209 0
-47 -107 0
-11 -30 0
-11 -209 0
-11 -47 0
-30 -209 0
-30 -47 0
-47 -209 0
-75 -141 0
-8 -141 0
-7 -141 0
-21 -141 0
-8 -75 0
-7 -75 0
-21 -75 0
-7 -8 0
-8 -21 0
-7 -21 0
-71 -155 0
-155 -174 0
-6 -155 0
-5 -155 0
-71 -174 0
-6 -71 0
-5 -71 0
-6 -174 0
-5 -174 0
-5 -6 0
-3 -4 0
-4 -188 0
-4 -133 0
-2 -4 0
-3 -188 0
-3 -133 0
-2 -3 0
-133 -188 0
-2 -188 0
-2 -133 0
-1 -157 0
-1 -207 0
-1 -177 0
-1 -210 0
-157 -207 0
-157 -177 0
-157 -210 0
-177 -207 0
-207 -210 0
-177 -210 0
-91 -139 0
-91 -213 0
-48 -91 0
-46 -91 0
-139 -213 0
-48 -139 0
-46 -139 0
-48 -213 0
-46 -213 0
-46 -48 0
-141 -155 0
-4 -141 0
-1 -141 0
-91 -141 0
-4 -155 0
-1 -155 0
-91 -155 0
-1 -4 0
-4 -91 0
-1 -91 0
-71 -75 0
-3 -75 0
-75 -157 0
-75 -139 0
-3 -71 0
-71 -157 0
-71 -139 0
-3 -157 0
-3 -139 0
-139 -157 0
-8 -174 0
-8 -188 0
-8 -207 0
-8 -213 0
-174 -188 0
-174 -207 0
-174 -213 0
-188 -207 0
-188 -213 0
-207 -213 0
-6 -7 0
-7 -133 0
-7 -177 0
-7 -48 0
-6 -133 0
-6 -177 0
-6 -48 0
-133 -177 0
-48 -133 0
-48 -177 0
-5 -21 0
-2 -21 0
-21 -210 0
-21 -46 0
-2 -5 0
-5 -210 0
-5 -46 0
-2 -210 0
-2 -46 0
-46 -210 0
